(set-logic ALL)
(declare-const data_bits_VAR String)
(assert (< 0 (str.len data_bits_VAR)))
(assert (> (str.len data_bits_VAR) 0))
(assert (< 1 (str.len data_bits_VAR)))
(assert (> (str.len data_bits_VAR) 1))
(assert (< 2 (str.len data_bits_VAR)))
(assert (> (str.len data_bits_VAR) 2))
(assert (< 3 (str.len data_bits_VAR)))
(assert (> (str.len data_bits_VAR) 3))
(assert (< 4 (str.len data_bits_VAR)))
(assert (> (str.len data_bits_VAR) 4))
(assert (< 5 (str.len data_bits_VAR)))
(check-sat)
(get-value (data_bits_VAR))
